num_clientes = 5;
num_dias = 15;
num_plantas = 3;
min_porcent_demanda = 50;
reg_alto_dias = 3;
reg_alto_porcent = 80;
costo = [52, 25, 33];
capacidad = [1130, 370, 620];
pago = [62, 60, 58, 52, 50];
demanda = [| 580,  690, 700,  710, 720
          | 585,  695, 705,  715, 725
          | 590,  700, 710,  720, 730
          | 595,  705, 715,  725, 735
          | 600,  710, 720,  730, 740
          | 650,  715, 725,  735, 745
          | 710,  720, 730,  740, 750
          | 715,  725, 735,  745, 755
          | 720,  730, 740,  750, 760
          | 725,  735, 745,  755, 765
          | 730,  740, 750,  760, 770
          | 735,  745, 755,  765, 775
          | 740,  750, 760,  770, 780
          | 745,  755, 765,  775, 785
          | 750,  760, 770,  780, 790 |];
